
-10.85
-10.5
-10.1
-9.65
-8.95
-8.45
-7.0
-5.05
-3.2
-2.1
-1.75
-1.65
-1.55
-1.55
-1.55
-1.5
-1.5
-1.5
-1.4
-1.25
-1.25
-1.2
-1.2
-1.2
-1.2
-1.2
-1.2
-1.2
-1.2
-1.2
-1.2
-1.2
-1.2
-1.2
-1.2
-1.2
-1.2
-1.2
-1.2
-1.2
-1.2
-1.2